WARNING: for repeatability, setting FPU to use double precision
============================[ Problem Statistics ]=============================
|                                                                             |
|  Number of variables:            50                                         |
|  Number of clauses:             218                                         |
|  Parse time:                   0.00 s                                       |
|                                                                             |
============================[ Search Statistics ]==============================
| Conflicts |          ORIGINAL         |          LEARNT          | Progress |
|           |    Vars  Clauses Literals |    Limit  Clauses Lit/Cl |          |
===============================================================================
===============================================================================
restarts              : 1
conflicts             : 20             (14409 /sec)
decisions             : 35             (0.00 % random) (25216 /sec)
propagations          : 325            (234150 /sec)
conflict literals     : 66             (16.46 % deleted)
Memory used           : 20.00 MB
CPU time              : 0.001388 s

SATISFIABLE
